s td 10 11 20
b 1 1 7 8 10 11 12 14 16 18 19
b 2 2 6 7 8 10 11 12 14 16 18 19
b 3 2 6 10 11 12 13 14 16 18 19
b 4 2 3 10 11 13 14 18
b 5 5 6 10 11 12 13 14 16 18
b 6 2 6 7 8 10 11 12 14 18 19 20
b 7 2 6 7 8 10 12 14 15 18 19 20
b 8 2 4 7 10 14 15 18 19 20
b 9 1 7 8 11 12 16 17 19
b 10 8 9 11 12 16 17 19
1 2
1 9
2 3
2 6
3 4
3 5
6 7
7 8
9 10
